20
5
20835
196 398 80 313 309
false
0.25
4 8 19 42 49 10 34 38 32 43 15 32 16 18 14 39 12 27 45 37
46 27 39 46 28 45 32 12 23 32 14 25 41 18 30 3 2 6 16 46
4 25 13 5 32 19 43 49 17 19 31 36 41 15 28 43 36 5 15 46
7 43 45 38 25 15 15 20 16 46 1 8 31 12 35 45 30 24 9 17
48 37 39 11 23 16 14 25 50 17 26 1 41 28 29 44 27 2 15 42
11 50 14 69 57 43 4 4 12 42 63 35 3 57 44 16 32 19 31 35
0 0 0 0 0 0 0 0 69 0 0 0 69 0 0 0 0 100 0 0
0 0 0 0 0 0 0 0 0 0 0 0 0 80 0 88 0 0 0
0 0 0 0 0 0 0 0 0 0 0 0 69 0 0 0 0 0
0 0 0 93 25 0 0 0 0 0 77 0 0 76 52 0 1
0 0 0 62 0 0 40 0 0 0 0 0 56 0 11 0
0 87 0 0 0 29 0 15 26 0 0 0 40 0 0
0 0 0 0 0 71 0 0 0 0 0 47 92 0
0 21 27 0 0 0 28 0 0 10 0 34 0
0 0 10 0 0 0 38 0 84 19 77 0
0 0 0 0 0 0 42 0 0 0 0
0 0 0 0 52 0 0 0 0 82
0 0 0 0 38 0 0 0 0
0 0 0 0 0 0 74 0
0 0 0 0 0 0 0
0 0 0 0 0 0
0 0 0 0 0
0 0 0 0
0 0 0
0 0
0 24 56 0 0 0 0 0 0 0 0 0 0 0 23 0 0 0 0
0 0 0 0 0 99 0 0 68 0 0 0 97 0 0 0 0 0
0 0 0 0 0 0 26 0 0 0 0 0 0 0 0 0 0
0 0 6 0 0 0 37 57 0 0 0 96 54 11 50 0
0 0 0 0 35 0 20 62 0 0 0 38 0 0 0
0 0 0 11 77 0 0 0 0 28 50 0 0 0
0 0 0 0 0 0 0 0 0 0 15 0 0
0 0 0 0 0 0 48 1 0 0 0 64
0 0 0 0 89 19 95 85 0 0 0
0 0 0 0 65 0 53 0 29 0
0 0 0 0 0 0 0 0 0
0 0 0 0 65 0 0 0
0 26 0 23 0 0 0
0 0 0 0 0 88
0 0 0 0 0
0 0 77 0
0 0 50
0 0
0
0 0 0 0 0 55 0 23 0 0 56 0 0 0 0 0 0 6
0 0 0 0 0 0 0 0 0 0 0 0 99 0 0 0 0
0 20 25 90 36 0 0 0 0 0 0 0 91 0 23 0
0 39 94 0 49 91 0 0 0 0 0 0 0 0 51
0 0 0 0 0 0 86 69 93 75 0 0 0 0
0 0 94 0 0 0 42 0 0 0 11 35 0
0 0 0 0 0 0 0 0 0 0 2 0
0 0 0 0 0 0 0 0 0 91 94
0 0 0 0 3 0 0 0 0 0
0 0 0 1 0 0 0 0 0
0 80 0 0 0 72 0 0
0 36 0 0 32 0 0
0 0 0 0 97 0
0 0 0 0 0
0 0 1 0
0 0 0
0 0
0
0 0 0 0 0 0 83 97 76 0 0 0 0 5 0 0 22
0 0 0 0 0 0 0 0 76 0 0 43 0 89 0 0
0 0 0 0 0 0 0 0 80 17 0 0 0 0 0
0 0 0 0 0 0 0 0 0 0 21 0 0 0
0 0 0 0 0 0 0 16 0 39 0 0 0
0 0 0 0 0 73 0 0 0 0 88 15
0 0 0 0 0 0 74 0 1 56 0
0 28 0 0 0 0 84 0 0 0
0 0 0 0 0 0 0 0 0
0 0 0 0 0 63 0 76
0 0 0 0 0 0 0
0 0 0 0 0 34
0 12 0 0 0
0 0 0 0
0 0 0
0 0
0
0 94 0 0 0 0 0 3 0 0 0 0 0 0 0 0
0 10 58 51 0 98 0 0 0 0 0 0 0 44 0
0 52 30 49 0 57 0 0 0 0 0 0 5 0
0 0 0 0 0 0 0 0 0 0 0 13 45
0 0 0 40 0 60 0 0 0 0 0 0
0 0 0 0 51 59 0 0 24 0 0
0 0 0 70 0 0 0 0 0 11
0 38 92 0 0 0 21 98 55
0 0 100 34 0 0 11 0
0 56 0 49 0 0 0
0 19 0 0 97 0
0 0 0 0 57
0 0 0 0
0 0 28
0 17
0
0 85 53 0 0 54 39 99 0 0 0 0 87 0 0
0 0 22 0 0 0 0 0 70 0 51 0 0 0
0 0 0 0 0 0 0 0 0 69 0 0 14
0 0 0 0 0 0 0 0 31 0 0 0
0 0 0 0 0 91 0 0 0 0 0
0 0 0 0 0 0 6 0 0 0
0 0 4 18 0 49 0 0 35
0 0 0 0 35 0 81 28
0 0 0 34 77 0 95
0 0 0 0 0 0
0 0 0 20 0
0 97 77 0
0 40 0
0 0
0
0 0 0 70 0 1 0 0 0 0 72 0 36 39
0 0 0 0 47 0 0 0 75 0 0 0 0
0 0 0 29 0 0 0 88 0 0 0 17
0 0 0 0 0 0 0 82 89 52 0
0 0 0 0 0 0 2 90 0 0
0 51 59 0 91 0 2 0 0
0 0 0 0 13 0 88 0
0 0 0 85 16 17 0
0 0 0 0 69 0
0 0 0 0 17
0 0 0 0
0 0 73
0 0
0
0 41 0 0 0 0 0 55 48 0 0 0 0
0 0 0 0 0 0 0 0 0 0 0 36
0 41 0 0 0 18 0 0 0 0 0
0 0 0 0 0 0 0 92 22 61
0 0 0 0 34 0 0 0 0
0 0 0 0 0 0 0 0
0 17 0 0 0 0 0
0 0 0 0 0 53
0 0 0 0 82
0 0 0 0
0 0 0
0 0
0
0 0 0 56 0 0 0 0 0 0 24 0
0 55 0 0 0 0 0 0 0 0 0
0 0 0 53 0 0 0 71 0 0
0 18 0 62 0 0 97 0 0
0 0 69 0 0 0 0 0
0 0 0 0 0 30 0
0 20 0 0 0 0
0 5 47 0 0
0 0 0 0
0 0 0
0 0
0
0 0 0 53 0 0 41 0 0 0 0
0 0 0 57 0 0 19 0 0 0
0 0 0 3 0 99 0 0 58
0 0 0 0 0 99 0 79
0 0 0 0 0 0 29
0 0 0 0 0 0
0 16 0 0 79
0 0 91 34
0 49 91
0 0
0
0 0 0 0 14 0 0 0 0 36
0 0 0 22 0 0 0 0 0
0 0 0 0 0 33 72 68
0 0 0 0 0 0 0
0 56 52 14 0 0
0 0 0 0 0
0 0 0 0
0 0 0
0 0
0
0 53 0 58 83 0 0 62 0
0 58 67 0 0 0 0 0
0 0 66 0 62 0 0
0 0 0 0 0 0
0 0 0 39 86
0 0 0 32
0 90 0
0 0
0
0 0 0 0 0 19 26 0
0 0 0 0 0 0 0
0 0 62 0 0 0
0 19 0 0 0
0 0 0 0
0 0 0
0 0
0
0 0 0 0 0 0 0
0 7 0 0 0 13
0 27 54 62 95
0 0 0 0
0 77 58
0 78
0
0 0 0 56 0 0
0 0 73 0 0
0 0 0 0
0 32 28
0 11
0
0 38 0 54 0
0 0 23 48
0 0 0
0 0
0
0 0 91 0
0 0 0
0 0
0
0 26 0
0 0
0
0 23
0
0
2166 2183 1779 2553 2588 2978 2223 1978 2079 2178 2516 1986 2560 2075 2383 2265 2478 2456 2615 2327
296.9281055900621 110.16285874246338 72.24836707152497 185.23216678058787 88.43232741792369 181.07459064327483 98.70689832909908 87.05466237021123 89.83433439897698 81.76214297676923 608.2756280278861 486.1838333333333 85.9795436664044 123.18253968253968 97.00257799671593 193.51238954843606 337.7422222222222 464.36592592592586 172.15416666666667 71.2705839562617
